regression_itp/log-2023-02-20-10-22-36/dec-far2.smt2.out
unsat
((and (<= 0 (+ x2 x5)) (<= 0 (+ x2 (* x3 2) x4)) (<= 0 (+ x4 x5))))
